words_train/words_514_SAT.qaiger
aag 85 24 0 1 61
36
44
42
30
46
40
22
6
26
28
24
34
38
32
12
2
48
10
14
18
8
4
20
16
170
50 34 18
52 50 20
54 52 22
56 54 24
58 56 26
60 58 28
62 59 29
64 63 61
66 57 26
68 35 23
70 21 19
72 70 68
74 72 25
76 75 27
78 77 67
80 78 65
82 61 31
84 82 80
86 33 16
88 32 17
90 89 87
92 90 85
94 91 84
96 95 93
98 60 30
100 99 83
102 101 81
104 100 80
106 105 103
108 106 15
110 107 14
112 79 28
114 113 81
116 115 13
118 24 9
120 51 21
122 121 5
124 22 7
126 125 53
128 126 123
130 25 8
132 23 6
134 133 131
136 134 73
138 136 129
140 139 119
142 140 75
144 74 66
146 145 77
148 146 11
150 149 142
152 147 10
154 153 151
156 155 117
158 114 12
160 159 157
162 160 111
164 163 109
166 165 97
168 164 96
170 169 167
i0 1 x[1]
i1 1 x[5]
i2 1 x[4]
i3 2 y[6]
i4 1 x[6]
i5 1 x[3]
i6 2 y[2]
i7 2 z[2]
i8 2 y[4]
i9 2 y[5]
i10 2 y[3]
i11 1 x[0]
i12 1 x[2]
i13 2 y[7]
i14 2 z[5]
i15 2 z[0]
i16 1 x[7]
i17 2 z[4]
i18 2 z[6]
i19 2 y[0]
i20 2 z[3]
i21 2 z[1]
i22 2 y[1]
i23 2 z[7]
o0 bv[0]
c
simplified
  >=
    or
      2 z
      1
    add
      2 y
      and
        1 x
        1
