words_train/words_514_SAT.qaiger.qdimacs
p cnf 85 184
a 17 18 19 20 21 22 23 24 0
e 1 2 3 4 5 6 7 8 9 10 11 12 13 14 15 16 25 26 27 28 29 30 31 32 33 34 35 36 37 38 39 40 41 42 43 44 45 46 47 48 49 50 51 52 53 54 55 56 57 58 59 60 61 62 63 64 65 66 67 68 69 70 71 72 73 74 75 76 77 78 79 80 81 82 83 84 85 0
-17 -9 25 0
17 -25 0
9 -25 0
-25 -10 26 0
25 -26 0
10 -26 0
-26 -11 27 0
26 -27 0
11 -27 0
-27 -12 28 0
27 -28 0
12 -28 0
-28 -13 29 0
28 -29 0
13 -29 0
-29 -14 30 0
29 -30 0
14 -30 0
29 14 31 0
-29 -31 0
-14 -31 0
31 30 32 0
-31 -32 0
-30 -32 0
28 -13 33 0
-28 -33 0
13 -33 0
17 11 34 0
-17 -34 0
-11 -34 0
10 9 35 0
-10 -35 0
-9 -35 0
-35 -34 36 0
35 -36 0
34 -36 0
-36 12 37 0
36 -37 0
-12 -37 0
37 13 38 0
-37 -38 0
-13 -38 0
38 33 39 0
-38 -39 0
-33 -39 0
-39 32 40 0
39 -40 0
-32 -40 0
30 15 41 0
-30 -41 0
-15 -41 0
-41 -40 42 0
41 -42 0
40 -42 0
16 -8 43 0
-16 -43 0
8 -43 0
-16 8 44 0
16 -44 0
-8 -44 0
44 43 45 0
-44 -45 0
-43 -45 0
-45 42 46 0
45 -46 0
-42 -46 0
45 -42 47 0
-45 -47 0
42 -47 0
47 46 48 0
-47 -48 0
-46 -48 0
-30 -15 49 0
30 -49 0
15 -49 0
49 41 50 0
-49 -50 0
-41 -50 0
50 40 51 0
-50 -51 0
-40 -51 0
-50 -40 52 0
50 -52 0
40 -52 0
52 51 53 0
-52 -53 0
-51 -53 0
-53 7 54 0
53 -54 0
-7 -54 0
53 -7 55 0
-53 -55 0
7 -55 0
39 -14 56 0
-39 -56 0
14 -56 0
56 40 57 0
-56 -57 0
-40 -57 0
57 6 58 0
-57 -58 0
-6 -58 0
-12 4 59 0
12 -59 0
-4 -59 0
25 10 60 0
-25 -60 0
-10 -60 0
60 2 61 0
-60 -61 0
-2 -61 0
-11 3 62 0
11 -62 0
-3 -62 0
62 26 63 0
-62 -63 0
-26 -63 0
-63 61 64 0
63 -64 0
-61 -64 0
12 -4 65 0
-12 -65 0
4 -65 0
11 -3 66 0
-11 -66 0
3 -66 0
66 65 67 0
-66 -67 0
-65 -67 0
-67 36 68 0
67 -68 0
-36 -68 0
-68 64 69 0
68 -69 0
-64 -69 0
69 59 70 0
-69 -70 0
-59 -70 0
-70 37 71 0
70 -71 0
-37 -71 0
-37 -33 72 0
37 -72 0
33 -72 0
72 38 73 0
-72 -73 0
-38 -73 0
-73 5 74 0
73 -74 0
-5 -74 0
74 -71 75 0
-74 -75 0
71 -75 0
73 -5 76 0
-73 -76 0
5 -76 0
76 75 77 0
-76 -77 0
-75 -77 0
77 58 78 0
-77 -78 0
-58 -78 0
-57 -6 79 0
57 -79 0
6 -79 0
79 78 80 0
-79 -80 0
-78 -80 0
-80 55 81 0
80 -81 0
-55 -81 0
81 54 82 0
-81 -82 0
-54 -82 0
82 48 83 0
-82 -83 0
-48 -83 0
-82 -48 84 0
82 -84 0
48 -84 0
84 83 85 0
-84 -85 0
-83 -85 0
85 0
